(set-info :smt-lib-version 2.6)
(set-logic QF_SLIA)
(set-info :source |
Generated by: Dmitry Blotsky1, Federico Mora, Murphy Berzish, Yunhui Zheng, Ifaz Kabir, Vijay Ganesh, Zhengyang Lu
Generated on: 2018-01-24
Generator: StringFuzz
Application: Evaluate string solvers
Target solver: Z3str3, CVC4, Z3str2, Norn
Publications: Blotsky, D., Mora, F., Berzish, M., Zheng, Y., Kabir, I., & Ganesh, V. (2018). Stringfuzz: A fuzzer for string solvers. In CAV 2018.
Description: new instance generated by StringFuzz, a modular string and regex fuzzer
|)
(set-info :license "https://creativecommons.org/licenses/by/4.0/")
(set-info :category "random")
(set-info :status unknown)

(declare-fun var0 () String)
(assert (str.in_re var0 (re.++ (re.+ (re.+ (str.to_re "000"))) (re.++ (re.union (re.union (str.to_re "1") (str.to_re "22")) (re.+ (str.to_re "33"))) (re.++ (re.* (re.+ (str.to_re "44"))) (re.++ (re.+ (re.union (str.to_re "555") (str.to_re "666"))) (re.++ (re.union (re.+ (str.to_re "7")) (re.* (str.to_re "8"))) (re.++ (re.+ (re.+ (str.to_re "99"))) (re.++ (re.union (re.+ (str.to_re "aa")) (re.union (str.to_re "bbb") (str.to_re "c"))) (re.++ (re.union (re.* (str.to_re "ddd")) (re.+ (str.to_re "ee"))) (re.++ (re.* (re.+ (str.to_re "ff"))) (re.++ (re.union (re.union (str.to_re "g") (str.to_re "h")) (re.+ (str.to_re "i"))) (re.++ (re.+ (re.+ (str.to_re "jj"))) (re.++ (re.union (re.+ (str.to_re "k")) (re.* (str.to_re "ll"))) (re.++ (re.* (re.+ (str.to_re "mm"))) (re.++ (re.+ (re.union (str.to_re "nnn") (str.to_re "oo"))) (re.++ (re.+ (re.union (str.to_re "pp") (str.to_re "qqq"))) (re.++ (re.* (re.+ (str.to_re "r"))) (re.+ (re.union (str.to_re "ss") (str.to_re "t")))))))))))))))))))))
(check-sat)
(exit)
